(set-info :smt-lib-version 2.6)
(set-logic UF)
(set-info :source |Benchmarks from the paper: "Extending Sledgehammer with SMT Solvers" by Jasmin Blanchette, Sascha Bohme, and Lawrence C. Paulson, CADE 2011.  Translated to SMT2 by Andrew Reynolds and Morgan Deters.|)
(set-info :category "industrial")
(set-info :status unknown)
(declare-sort S1 0)
(declare-sort S2 0)
(declare-sort S3 0)
(declare-sort S4 0)
(declare-sort S5 0)
(declare-sort S6 0)
(declare-sort S7 0)
(declare-sort S8 0)
(declare-sort S9 0)
(declare-sort S10 0)
(declare-sort S11 0)
(declare-fun f1 () S1)
(declare-fun f2 () S1)
(declare-fun f3 (S3 S2) S1)
(declare-fun f4 () S3)
(declare-fun f5 (S2 S3) S1)
(declare-fun f6 (S4 S2) S3)
(declare-fun f7 (S2) S4)
(declare-fun f8 () S2)
(declare-fun f9 () S2)
(declare-fun f10 (S5 S2) S2)
(declare-fun f11 (S6 S2) S5)
(declare-fun f12 () S6)
(declare-fun f13 (S7 S8) S2)
(declare-fun f14 () S7)
(declare-fun f15 (S9 S8) S8)
(declare-fun f16 () S9)
(declare-fun f17 () S9)
(declare-fun f18 () S8)
(declare-fun f19 () S3)
(declare-fun f20 () S5)
(declare-fun f21 (S10 S3) S3)
(declare-fun f22 (S3) S10)
(declare-fun f23 (S3) S3)
(declare-fun f24 (S11 S8) S9)
(declare-fun f25 () S11)
(declare-fun f26 () S9)
(declare-fun f27 () S8)
(declare-fun f28 (S1 S1) S1)
(assert (not (= f1 f2)))
(assert (forall ((?v0 S2)) (= (= (f3 f4 ?v0) f1) (exists ((?v1 S2)) (and (= (f5 ?v1 (f6 (f7 f8) f9)) f1) (= ?v0 (f10 (f11 f12 (f13 f14 (f15 f16 (f15 f17 f18)))) ?v1)))))))
(assert (forall ((?v0 S2)) (= (= (f3 f19 ?v0) f1) (exists ((?v1 S2)) (and (= (f5 ?v1 (f6 (f7 f8) f9)) f1) (= ?v0 (f10 f20 (f10 (f11 f12 (f13 f14 (f15 f16 (f15 f17 f18)))) ?v1))))))))
(assert (not (= (f6 (f7 f8) (f10 (f11 f12 (f13 f14 (f15 f16 (f15 f17 f18)))) f9)) (f21 (f22 (f23 f4)) (f23 f19)))))
(assert (= (f10 f20 (f10 f20 f8)) (f13 f14 (f15 f16 (f15 f17 f18)))))
(assert (= (f13 f14 (f15 f16 (f15 f17 f18))) (f10 f20 (f10 f20 f8))))
(assert (= (f13 f14 (f15 f17 f18)) (f10 f20 f8)))
(assert (= (f13 f14 (f15 f17 (f15 f17 f18))) (f10 f20 (f10 f20 (f10 f20 f8)))))
(assert (forall ((?v0 S8)) (= (f15 (f24 f25 ?v0) (f15 f26 (f15 f17 f18))) ?v0)))
(assert (forall ((?v0 S8)) (= (f15 (f24 f25 (f15 f26 (f15 f17 f18))) ?v0) ?v0)))
(assert (forall ((?v0 S2) (?v1 S2)) (let ((?v_0 (f10 f20 f8))) (= (= (f10 (f11 f12 ?v0) ?v1) ?v_0) (and (= ?v0 ?v_0) (= ?v1 ?v_0))))))
(assert (= f8 (f13 f14 f18)))
(assert (= (f13 f14 f18) f8))
(assert (= f27 (f15 f26 f18)))
(assert (= (f15 f26 f18) f27))
(assert (= (f13 f14 f18) f8))
(assert (= (f15 f26 f18) f27))
(assert (= f27 (f15 f26 f18)))
(assert (forall ((?v0 S8)) (= (f15 (f24 f25 f18) ?v0) f18)))
(assert (forall ((?v0 S8) (?v1 S8)) (= (f15 (f24 f25 (f15 f16 ?v0)) ?v1) (f15 f16 (f15 (f24 f25 ?v0) ?v1)))))
(assert (= f18 f27))
(assert (forall ((?v0 S8) (?v1 S8)) (= (= (f15 f26 ?v0) (f15 f26 ?v1)) (= ?v0 ?v1))))
(assert (forall ((?v0 S8) (?v1 S2)) (let ((?v_0 (f13 f14 ?v0))) (= (= ?v_0 ?v1) (= ?v1 ?v_0)))))
(assert (forall ((?v0 S8) (?v1 S8)) (let ((?v_0 (f15 f26 ?v0))) (= (= ?v_0 ?v1) (= ?v1 ?v_0)))))
(assert (forall ((?v0 S8) (?v1 S8)) (= (= (f15 f17 ?v0) (f15 f17 ?v1)) (= ?v0 ?v1))))
(assert (= (= f18 f18) true))
(assert (forall ((?v0 S8) (?v1 S8)) (= (= (f15 f16 ?v0) (f15 f16 ?v1)) (= ?v0 ?v1))))
(assert (forall ((?v0 S2) (?v1 S2)) (=> (= (f10 f20 ?v0) (f10 f20 ?v1)) (= ?v0 ?v1))))
(assert (forall ((?v0 S2) (?v1 S2)) (= (= (f10 f20 ?v0) (f10 f20 ?v1)) (= ?v0 ?v1))))
(assert (forall ((?v0 S2)) (not (= (f10 f20 ?v0) ?v0))))
(assert (forall ((?v0 S2)) (not (= ?v0 (f10 f20 ?v0)))))
(assert (forall ((?v0 S2) (?v1 S2) (?v2 S2)) (let ((?v_0 (f11 f12 ?v0))) (= (f10 (f11 f12 (f10 ?v_0 ?v1)) ?v2) (f10 ?v_0 (f10 (f11 f12 ?v1) ?v2))))))
(assert (forall ((?v0 S2) (?v1 S2)) (= (f10 (f11 f12 ?v0) ?v1) (f10 (f11 f12 ?v1) ?v0))))
(assert (forall ((?v0 S8) (?v1 S8) (?v2 S8)) (= (f15 (f24 f25 (f15 f26 ?v0)) (f15 (f24 f25 (f15 f26 ?v1)) ?v2)) (f15 (f24 f25 (f15 f26 (f15 (f24 f25 ?v0) ?v1))) ?v2))))
(assert (forall ((?v0 S8) (?v1 S8)) (= (f15 (f24 f25 (f15 f26 ?v0)) (f15 f26 ?v1)) (f15 f26 (f15 (f24 f25 ?v0) ?v1)))))
(assert (forall ((?v0 S8) (?v1 S8)) (= (f15 f26 (f15 (f24 f25 ?v0) ?v1)) (f15 (f24 f25 (f15 f26 ?v0)) (f15 f26 ?v1)))))
(assert (forall ((?v0 S2)) (=> (= (f10 f20 ?v0) f8) false)))
(assert (forall ((?v0 S2)) (=> (= f8 (f10 f20 ?v0)) false)))
(assert (forall ((?v0 S2)) (not (= (f10 f20 ?v0) f8))))
(assert (forall ((?v0 S2)) (not (= (f10 f20 ?v0) f8))))
(assert (forall ((?v0 S2)) (not (= f8 (f10 f20 ?v0)))))
(assert (forall ((?v0 S2)) (not (= f8 (f10 f20 ?v0)))))
(assert (forall ((?v0 S8)) (= (= (f15 f17 ?v0) f18) false)))
(assert (forall ((?v0 S8)) (= (= f18 (f15 f17 ?v0)) false)))
(assert (forall ((?v0 S8) (?v1 S8)) (= (= (f15 f17 ?v0) (f15 f16 ?v1)) false)))
(assert (forall ((?v0 S8) (?v1 S8)) (= (= (f15 f16 ?v0) (f15 f17 ?v1)) false)))
(assert (forall ((?v0 S8)) (= (= (f15 f16 ?v0) f18) (= ?v0 f18))))
(assert (forall ((?v0 S8)) (= (= f18 (f15 f16 ?v0)) (= f18 ?v0))))
(assert (= (f15 f16 f18) f18))
(assert (forall ((?v0 S2) (?v1 S2) (?v2 S2)) (= (= (f10 (f11 f12 ?v0) ?v1) (f10 (f11 f12 ?v2) ?v1)) (or (= ?v0 ?v2) (= ?v1 f8)))))
(assert (forall ((?v0 S2) (?v1 S2) (?v2 S2)) (let ((?v_0 (f11 f12 ?v0))) (= (= (f10 ?v_0 ?v1) (f10 ?v_0 ?v2)) (or (= ?v1 ?v2) (= ?v0 f8))))))
(assert (forall ((?v0 S2) (?v1 S2)) (= (= (f10 (f11 f12 ?v0) ?v1) f8) (or (= ?v0 f8) (= ?v1 f8)))))
(assert (forall ((?v0 S2)) (= (f10 (f11 f12 ?v0) f8) f8)))
(assert (forall ((?v0 S2)) (= (f10 (f11 f12 f8) ?v0) f8)))
(assert (forall ((?v0 S2) (?v1 S2) (?v2 S2)) (let ((?v_0 (f11 f12 (f10 f20 ?v0)))) (= (= (f10 ?v_0 ?v1) (f10 ?v_0 ?v2)) (= ?v1 ?v2)))))
(assert (forall ((?v0 S2) (?v1 S3) (?v2 S3)) (=> (=> (not (= (f5 ?v0 ?v1) f1)) (= (f5 ?v0 ?v2) f1)) (= (f5 ?v0 (f21 (f22 ?v2) ?v1)) f1))))
(assert (forall ((?v0 S3) (?v1 S2) (?v2 S3)) (=> (=> (not (= (f3 ?v0 ?v1) f1)) (= (f3 ?v2 ?v1) f1)) (= (f3 (f21 (f22 ?v2) ?v0) ?v1) f1))))
(assert (forall ((?v0 S3) (?v1 S3) (?v2 S2)) (=> (= (f3 (f21 (f22 ?v0) ?v1) ?v2) f1) (=> (=> (= (f3 ?v0 ?v2) f1) false) (=> (=> (= (f3 ?v1 ?v2) f1) false) false)))))
(assert (forall ((?v0 S2) (?v1 S3) (?v2 S3)) (=> (= (f5 ?v0 (f21 (f22 ?v1) ?v2)) f1) (=> (=> (= (f5 ?v0 ?v1) f1) false) (=> (=> (= (f5 ?v0 ?v2) f1) false) false)))))
(assert (forall ((?v0 S2)) (=> (=> (= ?v0 f8) false) (=> (forall ((?v1 S2)) (=> (= ?v0 (f10 f20 ?v1)) false)) false))))
(assert (forall ((?v0 S3) (?v1 S2)) (=> (= (f3 ?v0 ?v1) f1) (=> (forall ((?v2 S2)) (=> (= (f3 ?v0 (f10 f20 ?v2)) f1) (= (f3 ?v0 ?v2) f1))) (= (f3 ?v0 f8) f1)))))
(assert (forall ((?v0 S3) (?v1 S2)) (=> (= (f3 ?v0 f8) f1) (=> (forall ((?v2 S2)) (=> (= (f3 ?v0 ?v2) f1) (= (f3 ?v0 (f10 f20 ?v2)) f1))) (= (f3 ?v0 ?v1) f1)))))
(assert (forall ((?v0 S2)) (=> (not (= ?v0 f8)) (exists ((?v1 S2)) (= ?v0 (f10 f20 ?v1))))))
(assert (forall ((?v0 S3) (?v1 S3) (?v2 S2)) (= (= (f3 (f21 (f22 ?v0) ?v1) ?v2) f1) (= (f28 (f3 ?v0 ?v2) (f3 ?v1 ?v2)) f1))))
(assert (forall ((?v0 S3) (?v1 S3) (?v2 S2)) (= (= (f3 (f21 (f22 ?v0) ?v1) ?v2) f1) (= (f28 (f3 ?v0 ?v2) (f3 ?v1 ?v2)) f1))))
(assert (forall ((?v0 S2) (?v1 S2) (?v2 S2)) (let ((?v_0 (f11 f12 ?v0))) (= (= (f10 ?v_0 ?v1) (f10 ?v_0 ?v2)) (or (= ?v0 f8) (= ?v1 ?v2))))))
(assert (forall ((?v0 S8)) (= (f15 f26 ?v0) ?v0)))
(assert (forall ((?v0 S8) (?v1 S8)) (= (f15 (f24 f25 ?v0) ?v1) (f15 (f24 f25 ?v1) ?v0))))
(assert (forall ((?v0 S8) (?v1 S8)) (= (f15 (f24 f25 (f15 f26 ?v0)) (f15 f26 ?v1)) (f15 f26 (f15 (f24 f25 ?v0) ?v1)))))
(check-sat)
(exit)
